\ LP format - for model browsing. Use MPS format to capture full model detail.
\ Signature: 0x2684a1227a3626c7
Minimize
  2.878278 x_1[Des_Moines,_IA,Portland,_OR]
   + 1.716294 x_1[Des_Moines,_IA,Salt_Lake_City,_UT]
   + 2.254108 x_1[Des_Moines,_IA,Phoenix,_AZ]
   + 1.700602 x_1[Des_Moines,_IA,Charlotte,_NC]
   + 1.446029 x_1[Des_Moines,_IA,Atlanta,_GA]
   + 0.941464 x_1[Des_Moines,_IA,Cincinnati,_OH]
   + 0.53373 x_1[Des_Moines,_IA,Chicago,_IL]
   + 2.910176 x_1[Kansas_City,_MO,Portland,_OR]
   + 1.749216 x_1[Kansas_City,_MO,Salt_Lake_City,_UT]
   + 1.944613 x_1[Kansas_City,_MO,Phoenix,_AZ]
   + 1.533309 x_1[Kansas_City,_MO,Charlotte,_NC]
   + 1.279009 x_1[Kansas_City,_MO,Atlanta,_GA]
   + 0.938865 x_1[Kansas_City,_MO,Cincinnati,_OH]
   + 0.854039 x_1[Kansas_City,_MO,Chicago,_IL]
   + 2.028842 x_1[Denver,_CO,Portland,_OR]
   + 0.866853 x_1[Denver,_CO,Salt_Lake_City,_UT]
   + 1.385835 x_1[Denver,_CO,Phoenix,_AZ]
   + 2.510158 x_1[Denver,_CO,Charlotte,_NC]
   + 2.25586 x_1[Denver,_CO,Atlanta,_GA]
   + 1.915716 x_1[Denver,_CO,Cincinnati,_OH]
   + 1.612428 x_1[Denver,_CO,Chicago,_IL]
   + 2.842426 x_1[Wichita,_KS,Portland,_OR]
   + 1.680444 x_1[Wichita,_KS,Salt_Lake_City,_UT]
   + 1.625013 x_1[Wichita,_KS,Phoenix,_AZ]
   + 1.732673 x_1[Wichita,_KS,Charlotte,_NC]
   + 1.478373 x_1[Wichita,_KS,Atlanta,_GA]
   + 1.260926 x_1[Wichita,_KS,Cincinnati,_OH]
   + 1.162882 x_1[Wichita,_KS,Chicago,_IL]
   + 3.275722 x_1[St._Louis,_MO,Portland,_OR]
   + 2.114759 x_1[St._Louis,_MO,Salt_Lake_City,_UT]
   + 2.342252 x_1[St._Louis,_MO,Phoenix,_AZ]
   + 1.166163 x_1[St._Louis,_MO,Charlotte,_NC]
   + 0.911865 x_1[St._Louis,_MO,Atlanta,_GA]
   + 0.582082 x_1[St._Louis,_MO,Cincinnati,_OH]
   + 0.496468 x_1[St._Louis,_MO,Chicago,_IL]
   + 4.653696 x_2[Portland,_OR,New_York,_NY]
   + 1.556656 x_2[Portland,_OR,Los_Angeles,_CA]
   + 3.258622 x_2[Portland,_OR,Dallas,_TX]
   + 0.283437 x_2[Portland,_OR,Seattle,_WA]
   + 4.87317 x_2[Portland,_OR,Orlando,_FL]
   + 3.50247 x_2[Salt_Lake_City,_UT,New_York,_NY]
   + 1.095249 x_2[Salt_Lake_City,_UT,Los_Angeles,_CA]
   + 1.980788 x_2[Salt_Lake_City,_UT,Dallas,_TX]
   + 1.365994 x_2[Salt_Lake_City,_UT,Seattle,_WA]
   + 3.721952 x_2[Salt_Lake_City,_UT,Orlando,_FL]
   + 3.872061 x_2[Phoenix,_AZ,New_York,_NY]
   + 0.604727 x_2[Phoenix,_AZ,Los_Angeles,_CA]
   + 1.714486 x_2[Phoenix,_AZ,Dallas,_TX]
   + 2.293931 x_2[Phoenix,_AZ,Seattle,_WA]
   + 3.437974 x_2[Phoenix,_AZ,Orlando,_FL]
   + 1.005695 x_2[Charlotte,_NC,New_York,_NY]
   + 3.883367 x_2[Charlotte,_NC,Los_Angeles,_CA]
   + 1.652643 x_2[Charlotte,_NC,Dallas,_TX]
   + 4.505746 x_2[Charlotte,_NC,Seattle,_WA]
   + 0.84694 x_2[Charlotte,_NC,Orlando,_FL]
   + 1.409778 x_2[Atlanta,_GA,New_York,_NY]
   + 3.504373 x_2[Atlanta,_GA,Los_Angeles,_CA]
   + 1.262266 x_2[Atlanta,_GA,Dallas,_TX]
   + 4.235684 x_2[Atlanta,_GA,Seattle,_WA]
   + 0.717235 x_2[Atlanta,_GA,Orlando,_FL]
   + 1.01938 x_2[Cincinnati,_OH,New_York,_NY]
   + 3.498416 x_2[Cincinnati,_OH,Los_Angeles,_CA]
   + 1.511543 x_2[Cincinnati,_OH,Dallas,_TX]
   + 3.745416 x_2[Cincinnati,_OH,Seattle,_WA]
   + 1.456326 x_2[Cincinnati,_OH,Orlando,_FL]
   + 1.280463 x_2[Chicago,_IL,New_York,_NY]
   + 3.233499 x_2[Chicago,_IL,Los_Angeles,_CA]
   + 1.481447 x_2[Chicago,_IL,Dallas,_TX]
   + 3.3189 x_2[Chicago,_IL,Seattle,_WA]
   + 1.866679 x_2[Chicago,_IL,Orlando,_FL] + 10 y[New_York,_NY]
   + 10 y[Los_Angeles,_CA] + 10 y[Dallas,_TX] + 10 y[Seattle,_WA]
   + 10 y[Orlando,_FL]
Subject To
 R0: x_2[Portland,_OR,New_York,_NY] + x_2[Salt_Lake_City,_UT,New_York,_NY]
   + x_2[Phoenix,_AZ,New_York,_NY] + x_2[Charlotte,_NC,New_York,_NY]
   + x_2[Atlanta,_GA,New_York,_NY] + x_2[Cincinnati,_OH,New_York,_NY]
   + x_2[Chicago,_IL,New_York,_NY] + y[New_York,_NY] >= 69088.49563
 R1: x_2[Portland,_OR,Los_Angeles,_CA]
   + x_2[Salt_Lake_City,_UT,Los_Angeles,_CA]
   + x_2[Phoenix,_AZ,Los_Angeles,_CA] + x_2[Charlotte,_NC,Los_Angeles,_CA]
   + x_2[Atlanta,_GA,Los_Angeles,_CA] + x_2[Cincinnati,_OH,Los_Angeles,_CA]
   + x_2[Chicago,_IL,Los_Angeles,_CA] + y[Los_Angeles,_CA] >= 49723.07896
 R2: x_2[Portland,_OR,Dallas,_TX] + x_2[Salt_Lake_City,_UT,Dallas,_TX]
   + x_2[Phoenix,_AZ,Dallas,_TX] + x_2[Charlotte,_NC,Dallas,_TX]
   + x_2[Atlanta,_GA,Dallas,_TX] + x_2[Cincinnati,_OH,Dallas,_TX]
   + x_2[Chicago,_IL,Dallas,_TX] + y[Dallas,_TX] >= 20039.34431
 R3: x_2[Portland,_OR,Seattle,_WA] + x_2[Salt_Lake_City,_UT,Seattle,_WA]
   + x_2[Phoenix,_AZ,Seattle,_WA] + x_2[Charlotte,_NC,Seattle,_WA]
   + x_2[Atlanta,_GA,Seattle,_WA] + x_2[Cincinnati,_OH,Seattle,_WA]
   + x_2[Chicago,_IL,Seattle,_WA] + y[Seattle,_WA] >= 11508.87292
 R4: x_2[Portland,_OR,Orlando,_FL] + x_2[Salt_Lake_City,_UT,Orlando,_FL]
   + x_2[Phoenix,_AZ,Orlando,_FL] + x_2[Charlotte,_NC,Orlando,_FL]
   + x_2[Atlanta,_GA,Orlando,_FL] + x_2[Cincinnati,_OH,Orlando,_FL]
   + x_2[Chicago,_IL,Orlando,_FL] + y[Orlando,_FL] >= 3406.773611
 R5: x_1[Des_Moines,_IA,Portland,_OR] + x_1[Kansas_City,_MO,Portland,_OR]
   + x_1[Denver,_CO,Portland,_OR] + x_1[Wichita,_KS,Portland,_OR]
   + x_1[St._Louis,_MO,Portland,_OR] - x_2[Portland,_OR,New_York,_NY]
   - x_2[Portland,_OR,Los_Angeles,_CA] - x_2[Portland,_OR,Dallas,_TX]
   - x_2[Portland,_OR,Seattle,_WA] - x_2[Portland,_OR,Orlando,_FL] = 0
 R6: x_1[Des_Moines,_IA,Salt_Lake_City,_UT]
   + x_1[Kansas_City,_MO,Salt_Lake_City,_UT]
   + x_1[Denver,_CO,Salt_Lake_City,_UT]
   + x_1[Wichita,_KS,Salt_Lake_City,_UT]
   + x_1[St._Louis,_MO,Salt_Lake_City,_UT]
   - x_2[Salt_Lake_City,_UT,New_York,_NY]
   - x_2[Salt_Lake_City,_UT,Los_Angeles,_CA]
   - x_2[Salt_Lake_City,_UT,Dallas,_TX]
   - x_2[Salt_Lake_City,_UT,Seattle,_WA]
   - x_2[Salt_Lake_City,_UT,Orlando,_FL] = 0
 R7: x_1[Des_Moines,_IA,Phoenix,_AZ] + x_1[Kansas_City,_MO,Phoenix,_AZ]
   + x_1[Denver,_CO,Phoenix,_AZ] + x_1[Wichita,_KS,Phoenix,_AZ]
   + x_1[St._Louis,_MO,Phoenix,_AZ] - x_2[Phoenix,_AZ,New_York,_NY]
   - x_2[Phoenix,_AZ,Los_Angeles,_CA] - x_2[Phoenix,_AZ,Dallas,_TX]
   - x_2[Phoenix,_AZ,Seattle,_WA] - x_2[Phoenix,_AZ,Orlando,_FL] = 0
 R8: x_1[Des_Moines,_IA,Charlotte,_NC] + x_1[Kansas_City,_MO,Charlotte,_NC]
   + x_1[Denver,_CO,Charlotte,_NC] + x_1[Wichita,_KS,Charlotte,_NC]
   + x_1[St._Louis,_MO,Charlotte,_NC] - x_2[Charlotte,_NC,New_York,_NY]
   - x_2[Charlotte,_NC,Los_Angeles,_CA] - x_2[Charlotte,_NC,Dallas,_TX]
   - x_2[Charlotte,_NC,Seattle,_WA] - x_2[Charlotte,_NC,Orlando,_FL] = 0
 R9: x_1[Des_Moines,_IA,Atlanta,_GA] + x_1[Kansas_City,_MO,Atlanta,_GA]
   + x_1[Denver,_CO,Atlanta,_GA] + x_1[Wichita,_KS,Atlanta,_GA]
   + x_1[St._Louis,_MO,Atlanta,_GA] - x_2[Atlanta,_GA,New_York,_NY]
   - x_2[Atlanta,_GA,Los_Angeles,_CA] - x_2[Atlanta,_GA,Dallas,_TX]
   - x_2[Atlanta,_GA,Seattle,_WA] - x_2[Atlanta,_GA,Orlando,_FL] = 0
 R10: x_1[Des_Moines,_IA,Cincinnati,_OH]
   + x_1[Kansas_City,_MO,Cincinnati,_OH] + x_1[Denver,_CO,Cincinnati,_OH]
   + x_1[Wichita,_KS,Cincinnati,_OH] + x_1[St._Louis,_MO,Cincinnati,_OH]
   - x_2[Cincinnati,_OH,New_York,_NY] - x_2[Cincinnati,_OH,Los_Angeles,_CA]
   - x_2[Cincinnati,_OH,Dallas,_TX] - x_2[Cincinnati,_OH,Seattle,_WA]
   - x_2[Cincinnati,_OH,Orlando,_FL] = 0
 R11: x_1[Des_Moines,_IA,Chicago,_IL] + x_1[Kansas_City,_MO,Chicago,_IL]
   + x_1[Denver,_CO,Chicago,_IL] + x_1[Wichita,_KS,Chicago,_IL]
   + x_1[St._Louis,_MO,Chicago,_IL] - x_2[Chicago,_IL,New_York,_NY]
   - x_2[Chicago,_IL,Los_Angeles,_CA] - x_2[Chicago,_IL,Dallas,_TX]
   - x_2[Chicago,_IL,Seattle,_WA] - x_2[Chicago,_IL,Orlando,_FL] = 0
 R12: - x_1[Des_Moines,_IA,Portland,_OR]
   - x_1[Kansas_City,_MO,Portland,_OR] - x_1[Denver,_CO,Portland,_OR]
   - x_1[Wichita,_KS,Portland,_OR] - x_1[St._Louis,_MO,Portland,_OR]
   >= -47634.02931
 R13: - x_1[Des_Moines,_IA,Salt_Lake_City,_UT]
   - x_1[Kansas_City,_MO,Salt_Lake_City,_UT]
   - x_1[Denver,_CO,Salt_Lake_City,_UT]
   - x_1[Wichita,_KS,Salt_Lake_City,_UT]
   - x_1[St._Louis,_MO,Salt_Lake_City,_UT] >= -47634.02931
 R14: - x_1[Des_Moines,_IA,Phoenix,_AZ] - x_1[Kansas_City,_MO,Phoenix,_AZ]
   - x_1[Denver,_CO,Phoenix,_AZ] - x_1[Wichita,_KS,Phoenix,_AZ]
   - x_1[St._Louis,_MO,Phoenix,_AZ] >= -47634.02931
 R15: - x_1[Des_Moines,_IA,Charlotte,_NC]
   - x_1[Kansas_City,_MO,Charlotte,_NC] - x_1[Denver,_CO,Charlotte,_NC]
   - x_1[Wichita,_KS,Charlotte,_NC] - x_1[St._Louis,_MO,Charlotte,_NC]
   >= -47634.02931
 R16: - x_1[Des_Moines,_IA,Atlanta,_GA] - x_1[Kansas_City,_MO,Atlanta,_GA]
   - x_1[Denver,_CO,Atlanta,_GA] - x_1[Wichita,_KS,Atlanta,_GA]
   - x_1[St._Louis,_MO,Atlanta,_GA] >= -47634.02931
 R17: - x_1[Des_Moines,_IA,Cincinnati,_OH]
   - x_1[Kansas_City,_MO,Cincinnati,_OH] - x_1[Denver,_CO,Cincinnati,_OH]
   - x_1[Wichita,_KS,Cincinnati,_OH] - x_1[St._Louis,_MO,Cincinnati,_OH]
   >= -47634.02931
 R18: - x_1[Des_Moines,_IA,Chicago,_IL] - x_1[Kansas_City,_MO,Chicago,_IL]
   - x_1[Denver,_CO,Chicago,_IL] - x_1[Wichita,_KS,Chicago,_IL]
   - x_1[St._Louis,_MO,Chicago,_IL] >= -47634.02931
 R19: 0.5 x_2[Portland,_OR,New_York,_NY]
   + 0.5 x_2[Salt_Lake_City,_UT,New_York,_NY]
   + 0.5 x_2[Phoenix,_AZ,New_York,_NY]
   + 0.5 x_2[Charlotte,_NC,New_York,_NY]
   + 0.5 x_2[Atlanta,_GA,New_York,_NY]
   + 0.5 x_2[Cincinnati,_OH,New_York,_NY]
   + 0.5 x_2[Chicago,_IL,New_York,_NY] - y[New_York,_NY] >= 0
 R20: 0.5 x_2[Portland,_OR,Los_Angeles,_CA]
   + 0.5 x_2[Salt_Lake_City,_UT,Los_Angeles,_CA]
   + 0.5 x_2[Phoenix,_AZ,Los_Angeles,_CA]
   + 0.5 x_2[Charlotte,_NC,Los_Angeles,_CA]
   + 0.5 x_2[Atlanta,_GA,Los_Angeles,_CA]
   + 0.5 x_2[Cincinnati,_OH,Los_Angeles,_CA]
   + 0.5 x_2[Chicago,_IL,Los_Angeles,_CA] - y[Los_Angeles,_CA] >= 0
 R21: 0.5 x_2[Portland,_OR,Dallas,_TX]
   + 0.5 x_2[Salt_Lake_City,_UT,Dallas,_TX]
   + 0.5 x_2[Phoenix,_AZ,Dallas,_TX] + 0.5 x_2[Charlotte,_NC,Dallas,_TX]
   + 0.5 x_2[Atlanta,_GA,Dallas,_TX] + 0.5 x_2[Cincinnati,_OH,Dallas,_TX]
   + 0.5 x_2[Chicago,_IL,Dallas,_TX] - y[Dallas,_TX] >= 0
 R22: 0.5 x_2[Portland,_OR,Seattle,_WA]
   + 0.5 x_2[Salt_Lake_City,_UT,Seattle,_WA]
   + 0.5 x_2[Phoenix,_AZ,Seattle,_WA] + 0.5 x_2[Charlotte,_NC,Seattle,_WA]
   + 0.5 x_2[Atlanta,_GA,Seattle,_WA] + 0.5 x_2[Cincinnati,_OH,Seattle,_WA]
   + 0.5 x_2[Chicago,_IL,Seattle,_WA] - y[Seattle,_WA] >= 0
 R23: 0.5 x_2[Portland,_OR,Orlando,_FL]
   + 0.5 x_2[Salt_Lake_City,_UT,Orlando,_FL]
   + 0.5 x_2[Phoenix,_AZ,Orlando,_FL] + 0.5 x_2[Charlotte,_NC,Orlando,_FL]
   + 0.5 x_2[Atlanta,_GA,Orlando,_FL] + 0.5 x_2[Cincinnati,_OH,Orlando,_FL]
   + 0.5 x_2[Chicago,_IL,Orlando,_FL] - y[Orlando,_FL] >= 0
Bounds
End
